Route #1: 1 41 52 17 55 11 19 35 25 50 1 
Route #2: 1 20 53 54 23 43 57 30 1 
Route #3: 1 1 18 45 31 13 51 22 38 7 33 1 
Route #4: 1 32 58 65 4 60 15 21 3 39 14 5 1 
Route #5: 1 34 56 47 62 46 6 1 
Route #6: 1 16 48 64 63 26 10 24 29 1 
Route #7: 1 49 12 37 59 44 1 
Route #8: 1 40 8 42 27 9 1 
Route #9: 1 61 28 2 36 1 

Cost 1631.41
Time 0.6451


 * Another infos *

 Iterations: 66 Time: 0.6451 sec - 0.0108 min - 0.0002 horas
0.0000 h 0.0108 min
Problem dimension: 66
